BAYES
56
3 3 3 3 4 4 3 3 3 3 3 3 4 4 3 4 6 7 3 3 3 3 4 4 4 4 4 3 3 3 4 3 4 4 3 3 3 4 3 3 4 4 5 2 6 11 11 7 4 5 4 3 4 2 6 4
56
3 30 43 0
1  1
4 1 22 44 2
1  3
2 13 4
3 4 12 5
4 29 35 55 6
2 14 7
3 0 7 8
3 20 55 9
4 4 5 11 10
3 18 51 11
3 40 41 12
4 33 37 48 13
5 4 6 9 10 14
3 23 24 15
1  16
2 45 17
1  18
3 14 25 19
3 3 10 20
3 2 19 21
1  22
1  23
1  24
1  25
2 45 26
2 45 27
2 45 28
1  29
1  30
2 20 31
2 45 32
1  33
3 36 42 34
3 20 55 35
5 8 15 21 46 36
1  37
3 31 34 38
2 45 39
1  40
1  41
2 45 42
2 45 43
2 45 44
2 16 45
2 45 46
2 45 47
1  48
2 45 49
2 45 50
1  51
2 45 52
2 45 53
2 45 54
1  55

24
1.0 0.0 0.0 0.75 0.25 0.0 0.6 0.37 0.03 0.3 0.6 0.1 0.25 0.45 0.3 0.01 0.4 0.59 0.0 0.1 0.9 0.0 0.03 0.97
3
0.3 0.25 0.45
216
0.6 0.3 0.1 0.4 0.3 0.3 0.35 0.35 0.3 0.3 0.4 0.3 0.35 0.45 0.2 0.3 0.55 0.15 0.3 0.3 0.4 0.15 0.3 0.55 0.07 0.38 0.55 0.15 0.35 0.5 0.1 0.25 0.65 0.1 0.35 0.55 0.06 0.21 0.73 0.03 0.17 0.8 0.0 0.05 0.95 0.07 0.23 0.7 0.02 0.18 0.8 0.05 0.22 0.73 0.01 0.04 0.95 0.01 0.04 0.95 0.0 0.02 0.98 0.02 0.18 0.8 0.01 0.09 0.9 0.02 0.1 0.88 0.85 0.13 0.02 0.7 0.2 0.1 0.55 0.4 0.05 0.5 0.3 0.2 0.4 0.5 0.1 0.4 0.5 0.1 0.5 0.3 0.2 0.25 0.5 0.25 0.2 0.6 0.2 0.2 0.6 0.2 0.15 0.45 0.4 0.25 0.5 0.25 0.2 0.4 0.4 0.2 0.3 0.5 0.05 0.35 0.6 0.13 0.47 0.4 0.05 0.25 0.7 0.1 0.35 0.55 0.05 0.2 0.75 0.05 0.18 0.77 0.0 0.05 0.95 0.04 0.26 0.7 0.03 0.17 0.8 0.04 0.16 0.8 0.95 0.04 0.01 0.9 0.08 0.02 0.85 0.13 0.02 0.75 0.2 0.05 0.58 0.4 0.02 0.5 0.43 0.07 0.75 0.2 0.05 0.6 0.3 0.1 0.5 0.43 0.07 0.15 0.7 0.15 0.4 0.45 0.15 0.3 0.5 0.2 0.5 0.4 0.1 0.45 0.4 0.15 0.25 0.5 0.25 0.1 0.75 0.15 0.15 0.35 0.5 0.15 0.35 0.5 0.35 0.35 0.3 0.25 0.4 0.35 0.04 0.16 0.8 0.07 0.3 0.63 0.08 0.32 0.6 0.1 0.25 0.65
3
0.333333 0.333333 0.333334
16
1.0 0.0 0.0 0.0 0.0 1.0 0.0 0.0 0.0 0.0 1.0 0.0 0.0 0.0 0.0 1.0
64
0.99 0.01 0.0 0.0 0.7 0.29 0.01 0.0 0.2 0.55 0.24 0.01 0.0 0.25 0.55 0.2 0.8 0.2 0.0 0.0 0.35 0.55 0.1 0.0 0.01 0.39 0.55 0.05 0.0 0.02 0.43 0.55 0.7 0.29 0.01 0.0 0.2 0.6 0.2 0.0 0.01 0.09 0.8 0.1 0.0 0.0 0.3 0.7 0.2 0.74 0.06 0.0 0.05 0.4 0.45 0.1 0.0 0.05 0.5 0.45 0.0 0.0 0.01 0.99
108
0.5 0.48 0.02 0.75 0.22 0.03 0.8 0.18 0.02 0.7 0.28 0.02 0.3 0.63 0.07 0.15 0.7 0.15 0.15 0.7 0.15 0.4 0.55 0.05 0.0 0.55 0.45 0.0 0.5 0.5 0.0 0.7 0.3 0.02 0.73 0.25 0.3 0.5 0.2 0.45 0.45 0.1 0.35 0.5 0.15 0.25 0.6 0.15 0.1 0.5 0.4 0.1 0.75 0.15 0.05 0.8 0.15 0.2 0.65 0.15 0.0 0.4 0.6 0.0 0.4 0.6 0.0 0.5 0.5 0.01 0.5 0.49 0.1 0.25 0.65 0.25 0.4 0.35 0.25 0.35 0.4 0.05 0.35 0.6 0.05 0.2 0.75 0.05 0.5 0.45 0.05 0.45 0.5 0.05 0.3 0.65 0.0 0.15 0.85 0.0 0.2 0.8 0.0 0.2 0.8 0.01 0.2 0.79
9
0.0 0.0 1.0 0.0 1.0 0.0 1.0 0.0 0.0
27
1.0 0.0 0.0 0.98 0.02 0.0 0.35 0.35 0.3 0.75 0.25 0.0 0.03 0.94 0.03 0.0 0.25 0.75 0.3 0.35 0.35 0.0 0.02 0.98 0.0 0.0 1.0
36
1.0 0.0 0.0 1.0 0.0 0.0 1.0 0.0 0.0 1.0 0.0 0.0 0.3 0.6 0.1 0.2 0.7 0.1 0.5 0.46 0.04 0.8 0.19 0.01 0.0 0.3 0.7 0.0 0.2 0.8 0.1 0.5 0.4 0.5 0.38 0.12
144
1.0 0.0 0.0 0.85 0.15 0.0 0.25 0.35 0.4 0.92 0.08 0.0 0.7 0.29 0.01 0.15 0.4 0.45 0.88 0.12 0.0 0.4 0.5 0.1 0.1 0.4 0.5 0.85 0.14 0.01 0.55 0.43 0.02 0.1 0.25 0.65 0.95 0.05 0.0 0.4 0.55 0.05 0.05 0.45 0.5 0.9 0.09 0.01 0.25 0.6 0.15 0.01 0.3 0.69 0.85 0.15 0.0 0.15 0.75 0.1 0.0 0.2 0.8 0.6 0.39 0.01 0.01 0.9 0.09 0.0 0.15 0.85 0.93 0.07 0.0 0.2 0.78 0.02 0.01 0.29 0.7 0.8 0.2 0.0 0.01 0.89 0.1 0.0 0.1 0.9 0.8 0.18 0.02 0.03 0.85 0.12 0.0 0.05 0.95 0.78 0.2 0.02 0.01 0.74 0.25 0.0 0.04 0.96 0.74 0.25 0.01 0.0 0.5 0.5 0.0 0.1 0.9 0.65 0.34 0.01 0.0 0.4 0.6 0.0 0.02 0.98 0.5 0.48 0.02 0.01 0.74 0.25 0.0 0.01 0.99 0.42 0.55 0.03 0.05 0.65 0.3 0.0 0.0 1.0
27
0.95 0.04 0.01 0.45 0.52 0.03 0.1 0.4 0.5 0.85 0.13 0.02 0.1 0.8 0.1 0.02 0.28 0.7 0.8 0.1 0.1 0.05 0.45 0.5 0.0 0.02 0.98
64
0.9 0.1 0.0 0.0 0.55 0.4 0.05 0.0 0.25 0.3 0.35 0.1 0.25 0.25 0.25 0.25 0.6 0.35 0.05 0.0 0.15 0.6 0.2 0.05 0.1 0.35 0.5 0.05 0.25 0.25 0.25 0.25 0.3 0.5 0.2 0.0 0.05 0.4 0.45 0.1 0.0 0.15 0.7 0.15 0.25 0.25 0.25 0.25 0.25 0.35 0.25 0.15 0.1 0.3 0.3 0.3 0.0 0.1 0.4 0.5 0.25 0.25 0.25 0.25
256
1.0 0.0 0.0 0.0 0.9 0.1 0.0 0.0 0.7 0.2 0.1 0.0 0.2 0.5 0.2 0.1 0.9 0.1 0.0 0.0 0.7 0.3 0.0 0.0 0.15 0.7 0.15 0.0 0.1 0.35 0.45 0.1 0.7 0.2 0.1 0.0 0.15 0.7 0.15 0.0 0.2 0.6 0.2 0.0 0.1 0.2 0.6 0.1 0.2 0.5 0.2 0.1 0.1 0.35 0.45 0.1 0.1 0.2 0.6 0.1 0.1 0.1 0.2 0.6 0.9 0.1 0.0 0.0 0.7 0.3 0.0 0.0 0.15 0.7 0.15 0.0 0.1 0.35 0.45 0.1 0.7 0.3 0.0 0.0 0.0 1.0 0.0 0.0 0.0 0.7 0.3 0.0 0.0 0.2 0.7 0.1 0.15 0.7 0.15 0.0 0.0 0.7 0.3 0.0 0.0 0.3 0.7 0.0 0.0 0.15 0.5 0.35 0.1 0.35 0.45 0.1 0.0 0.2 0.7 0.1 0.0 0.15 0.5 0.35 0.0 0.1 0.2 0.7 0.7 0.2 0.1 0.0 0.15 0.7 0.15 0.0 0.2 0.6 0.2 0.0 0.1 0.2 0.6 0.1 0.15 0.7 0.15 0.0 0.0 0.7 0.3 0.0 0.0 0.3 0.7 0.0 0.0 0.15 0.5 0.35 0.2 0.6 0.2 0.0 0.0 0.3 0.7 0.0 0.0 0.0 1.0 0.0 0.0 0.0 0.7 0.3 0.1 0.2 0.6 0.1 0.0 0.15 0.5 0.35 0.0 0.0 0.7 0.3 0.0 0.0 0.3 0.7 0.2 0.5 0.2 0.1 0.1 0.35 0.45 0.1 0.1 0.2 0.6 0.1 0.1 0.1 0.2 0.6 0.1 0.35 0.45 0.1 0.0 0.2 0.7 0.1 0.0 0.15 0.5 0.35 0.0 0.1 0.2 0.7 0.1 0.2 0.6 0.1 0.0 0.15 0.5 0.35 0.0 0.0 0.7 0.3 0.0 0.0 0.3 0.7 0.1 0.1 0.2 0.6 0.0 0.1 0.2 0.7 0.0 0.0 0.3 0.7 0.0 0.0 0.0 1.0
324
0.4 0.35 0.25 0.1 0.35 0.55 0.05 0.3 0.65 0.4 0.35 0.25 0.25 0.3 0.45 0.15 0.35 0.5 0.45 0.3 0.25 0.4 0.3 0.3 0.35 0.3 0.35 0.35 0.35 0.3 0.05 0.35 0.6 0.03 0.25 0.72 0.35 0.35 0.3 0.1 0.35 0.55 0.05 0.3 0.65 0.4 0.35 0.25 0.25 0.4 0.35 0.2 0.4 0.4 0.3 0.3 0.4 0.01 0.25 0.74 0.01 0.2 0.79 0.3 0.3 0.4 0.05 0.6 0.35 0.04 0.27 0.69 0.3 0.35 0.35 0.15 0.35 0.5 0.13 0.35 0.52 0.6 0.25 0.15 0.4 0.3 0.3 0.2 0.5 0.3 0.65 0.25 0.1 0.45 0.3 0.25 0.25 0.5 0.25 0.7 0.22 0.08 0.55 0.3 0.15 0.4 0.45 0.15 0.5 0.25 0.25 0.3 0.35 0.35 0.15 0.45 0.4 0.55 0.25 0.2 0.35 0.35 0.3 0.2 0.5 0.3 0.65 0.25 0.1 0.45 0.35 0.2 0.3 0.5 0.2 0.35 0.25 0.4 0.15 0.4 0.45 0.1 0.35 0.55 0.4 0.25 0.35 0.2 0.4 0.4 0.12 0.43 0.45 0.5 0.25 0.25 0.35 0.35 0.3 0.2 0.45 0.35 0.6 0.35 0.05 0.45 0.4 0.15 0.25 0.45 0.3 0.65 0.3 0.05 0.5 0.4 0.1 0.3 0.45 0.25 0.7 0.27 0.03 0.6 0.3 0.1 0.55 0.33 0.12 0.55 0.3 0.15 0.4 0.4 0.2 0.2 0.4 0.4 0.6 0.3 0.1 0.45 0.4 0.15 0.25 0.5 0.25 0.65 0.3 0.05 0.55 0.3 0.15 0.5 0.3 0.2 0.45 0.3 0.25 0.3 0.4 0.3 0.15 0.4 0.45 0.5 0.3 0.2 0.35 0.4 0.25 0.2 0.45 0.35 0.55 0.35 0.1 0.45 0.35 0.2 0.4 0.35 0.25 0.7 0.27 0.03 0.65 0.3 0.05 0.6 0.35 0.05 0.75 0.23 0.02 0.7 0.26 0.04 0.65 0.32 0.03 0.85 0.14 0.01 0.8 0.17 0.03 0.75 0.23 0.02 0.6 0.35 0.05 0.6 0.3 0.1 0.55 0.33 0.12 0.65 0.3 0.05 0.65 0.3 0.05 0.6 0.35 0.05 0.78 0.18 0.04 0.75 0.2 0.05 0.7 0.25 0.05 0.5 0.35 0.15 0.48 0.32 0.2 0.45 0.35 0.2 0.55 0.35 0.1 0.55 0.3 0.15 0.5 0.4 0.1 0.7 0.24 0.06 0.65 0.28 0.07 0.6 0.3 0.1
64
0.7 0.28 0.02 0.0 0.9 0.09 0.01 0.0 0.95 0.05 0.0 0.0 1.0 0.0 0.0 0.0 0.1 0.5 0.3 0.1 0.65 0.25 0.09 0.01 0.75 0.23 0.02 0.0 0.95 0.05 0.0 0.0 0.01 0.14 0.35 0.5 0.25 0.35 0.3 0.1 0.4 0.4 0.18 0.02 0.75 0.2 0.05 0.0 0.0 0.02 0.18 0.8 0.01 0.15 0.33 0.51 0.2 0.3 0.35 0.15 0.5 0.35 0.1 0.05
6
0.254098 0.131148 0.106557 0.213115 0.07377 0.221312
77
0.04 0.05 0.15 0.05 0.19 0.3 0.22 0.05 0.07 0.15 0.1 0.3 0.27 0.06 0.4 0.25 0.0 0.15 0.05 0.02 0.13 0.13 0.22 0.18 0.07 0.34 0.03 0.03 0.15 0.2 0.2 0.18 0.11 0.11 0.05 0.0 0.0 0.0 0.0 0.0 0.98 0.02 0.5 0.27 0.15 0.02 0.02 0.0 0.04 0.0 0.02 0.1 0.05 0.5 0.2 0.13 0.0 0.02 0.7 0.0 0.2 0.04 0.04 0.1 0.45 0.1 0.05 0.26 0.02 0.02 0.1 0.1 0.1 0.2 0.05 0.1 0.35
3
0.15 0.45 0.4
36
0.0 0.05 0.95 0.05 0.15 0.8 0.15 0.5 0.35 0.5 0.4 0.1 0.0 0.12 0.88 0.1 0.4 0.5 0.2 0.6 0.2 0.8 0.16 0.04 0.05 0.15 0.8 0.25 0.5 0.25 0.35 0.5 0.15 0.9 0.09 0.01
27
0.9 0.1 0.0 0.6 0.39 0.01 0.5 0.35 0.15 0.01 0.4 0.59 0.0 0.4 0.6 0.0 0.15 0.85 0.0 0.05 0.95 0.0 0.0 1.0 0.0 0.0 1.0
27
1.0 0.0 0.0 0.9 0.1 0.0 0.4 0.35 0.25 0.6 0.4 0.0 0.15 0.7 0.15 0.0 0.4 0.6 0.25 0.35 0.4 0.0 0.1 0.9 0.0 0.0 1.0
4
0.1 0.52 0.3 0.08
4
0.12 0.32 0.38 0.18
4
0.4 0.4 0.15 0.05
4
0.0 1.0 0.0 0.0
44
0.04 0.25 0.35 0.36 0.07 0.31 0.31 0.31 0.35 0.47 0.14 0.04 0.4 0.4 0.13 0.07 0.45 0.35 0.15 0.05 0.01 0.35 0.45 0.19 0.78 0.19 0.03 0.0 0.0 0.02 0.33 0.65 0.22 0.4 0.3 0.08 0.13 0.4 0.35 0.12 0.09 0.4 0.33 0.18
33
0.33 0.5 0.17 0.4 0.4 0.2 0.05 0.45 0.5 0.1 0.5 0.4 0.05 0.65 0.3 1.0 0.0 0.0 0.0 0.07 0.93 0.4 0.55 0.05 0.2 0.45 0.35 0.05 0.55 0.4 0.2 0.4 0.4
33
0.25 0.55 0.2 0.25 0.5 0.25 0.4 0.38 0.22 0.43 0.37 0.2 0.02 0.38 0.6 0.0 0.1 0.9 0.84 0.16 0.0 0.25 0.31 0.44 0.41 0.29 0.3 0.23 0.42 0.35 0.16 0.28 0.56
3
0.5 0.35 0.15
4
0.15 0.57 0.2 0.08
9
1.0 0.0 0.0 0.48 0.5 0.02 0.2 0.5 0.3
44
0.25 0.55 0.2 0.0 0.05 0.1 0.1 0.75 0.1 0.3 0.3 0.3 0.18 0.38 0.34 0.1 0.02 0.02 0.26 0.7 0.05 0.07 0.05 0.83 0.1 0.25 0.15 0.5 0.0 0.6 0.1 0.3 0.2 0.1 0.2 0.5 0.04 0.0 0.04 0.92 0.5 0.35 0.09 0.06
4
0.25 0.25 0.25 0.25
45
0.94 0.05 0.01 0.98 0.02 0.0 0.92 0.06 0.02 0.92 0.06 0.02 0.99 0.01 0.0 0.06 0.89 0.05 0.04 0.94 0.02 0.01 0.89 0.1 0.03 0.92 0.05 0.09 0.9 0.01 0.01 0.05 0.94 0.0 0.03 0.97 0.0 0.01 0.99 0.01 0.04 0.95 0.03 0.12 0.85
36
1.0 0.0 0.0 1.0 0.0 0.0 1.0 0.0 0.0 1.0 0.0 0.0 0.5 0.4 0.1 0.15 0.4 0.45 0.35 0.6 0.05 0.8 0.19 0.01 0.05 0.45 0.5 0.01 0.15 0.84 0.1 0.25 0.65 0.6 0.3 0.1
1188
0.75 0.2 0.05 0.75 0.2 0.05 0.9 0.08 0.02 0.9 0.06 0.04 0.88 0.1 0.02 0.92 0.08 0.0 0.85 0.13 0.02 1.0 0.0 0.0 0.9 0.08 0.02 0.9 0.08 0.02 0.95 0.04 0.01 0.5 0.3 0.2 0.6 0.3 0.1 0.8 0.14 0.06 0.85 0.09 0.06 0.85 0.1 0.05 0.88 0.11 0.01 0.8 0.17 0.03 0.92 0.06 0.02 0.8 0.12 0.08 0.75 0.22 0.03 0.9 0.08 0.02 0.35 0.2 0.45 0.45 0.35 0.2 0.8 0.1 0.1 0.72 0.14 0.14 0.78 0.15 0.07 0.86 0.12 0.02 0.65 0.25 0.1 0.85 0.1 0.05 0.65 0.2 0.15 0.72 0.2 0.08 0.85 0.1 0.05 0.7 0.25 0.05 0.6 0.33 0.07 0.82 0.13 0.05 0.85 0.1 0.05 0.82 0.15 0.03 0.85 0.14 0.01 0.8 0.17 0.03 0.97 0.02 0.01 0.88 0.1 0.02 0.86 0.1 0.04 0.88 0.1 0.02 0.3 0.4 0.3 0.55 0.34 0.11 0.7 0.2 0.1 0.75 0.15 0.1 0.62 0.28 0.1 0.85 0.14 0.01 0.75 0.2 0.05 0.82 0.14 0.04 0.6 0.25 0.15 0.68 0.22 0.1 0.82 0.15 0.03 0.3 0.25 0.45 0.4 0.36 0.24 0.65 0.2 0.15 0.6 0.2 0.2 0.6 0.28 0.12 0.83 0.14 0.03 0.45 0.4 0.15 0.7 0.18 0.12 0.55 0.25 0.2 0.6 0.25 0.15 0.72 0.2 0.08 0.5 0.4 0.1 0.45 0.42 0.13 0.75 0.18 0.07 0.75 0.15 0.1 0.72 0.22 0.06 0.78 0.21 0.01 0.66 0.27 0.07 0.88 0.1 0.02 0.7 0.22 0.08 0.78 0.16 0.06 0.8 0.16 0.04 0.2 0.45 0.35 0.4 0.4 0.2 0.7 0.2 0.1 0.65 0.22 0.13 0.5 0.34 0.16 0.74 0.24 0.02 0.6 0.3 0.1 0.67 0.24 0.09 0.35 0.4 0.25 0.6 0.25 0.15 0.75 0.2 0.05 0.25 0.28 0.47 0.3 0.38 0.32 0.45 0.3 0.25 0.5 0.25 0.25 0.4 0.35 0.25 0.72 0.24 0.04 0.25 0.57 0.18 0.57 0.28 0.15 0.25 0.35 0.4 0.48 0.26 0.26 0.6 0.26 0.14 0.4 0.45 0.15 0.35 0.45 0.2 0.6 0.27 0.13 0.6 0.22 0.18 0.55 0.32 0.13 0.69 0.29 0.02 0.54 0.36 0.1 0.75 0.2 0.05 0.55 0.3 0.15 0.7 0.22 0.08 0.7 0.25 0.05 0.16 0.47 0.37 0.3 0.45 0.25 0.45 0.32 0.23 0.52 0.26 0.22 0.35 0.45 0.2 0.65 0.32 0.03 0.48 0.39 0.13 0.58 0.3 0.12 0.25 0.45 0.3 0.5 0.28 0.22 0.65 0.27 0.08 0.18 0.3 0.52 0.2 0.4 0.4 0.3 0.3 0.4 0.4 0.3 0.3 0.25 0.48 0.27 0.63 0.32 0.05 0.15 0.63 0.22 0.4 0.38 0.22 0.2 0.37 0.43 0.3 0.35 0.35 0.5 0.32 0.18 0.75 0.2 0.05 0.65 0.3 0.05 0.9 0.08 0.02 0.91 0.05 0.04 0.85 0.13 0.02 0.9 0.1 0.0 0.84 0.12 0.04 0.99 0.01 0.0 0.88 0.1 0.02 0.92 0.06 0.02 0.96 0.03 0.01 0.35 0.3 0.35 0.55 0.3 0.15 0.82 0.13 0.05 0.82 0.1 0.08 0.75 0.18 0.07 0.88 0.11 0.01 0.75 0.2 0.05 0.9 0.07 0.03 0.7 0.2 0.1 0.8 0.15 0.05 0.9 0.08 0.02 0.25 0.15 0.6 0.45 0.35 0.2 0.65 0.2 0.15 0.55 0.2 0.25 0.55 0.25 0.2 0.81 0.17 0.02 0.6 0.28 0.12 0.8 0.13 0.07 0.6 0.2 0.2 0.75 0.15 0.1 0.88 0.08 0.04 0.65 0.25 0.1 0.58 0.32 0.1 0.8 0.15 0.05 0.85 0.1 0.05 0.8 0.16 0.04 0.83 0.16 0.01 0.77 0.17 0.06 0.93 0.06 0.01 0.85 0.12 0.03 0.85 0.1 0.05 0.9 0.08 0.02 0.28 0.37 0.35 0.48 0.35 0.17 0.7 0.2 0.1 0.7 0.17 0.13 0.6 0.29 0.11 0.82 0.16 0.02 0.63 0.3 0.07 0.8 0.15 0.05 0.5 0.3 0.2 0.7 0.2 0.1 0.8 0.16 0.04 0.22 0.17 0.61 0.35 0.37 0.28 0.45 0.3 0.25 0.45 0.25 0.3 0.48 0.29 0.23 0.72 0.25 0.03 0.43 0.4 0.17 0.68 0.2 0.12 0.35 0.3 0.35 0.6 0.2 0.2 0.74 0.16 0.1 0.45 0.35 0.2 0.45 0.35 0.2 0.7 0.2 0.1 0.72 0.17 0.11 0.7 0.22 0.08 0.75 0.24 0.01 0.62 0.3 0.08 0.85 0.12 0.03 0.75 0.15 0.1 0.76 0.17 0.07 0.8 0.16 0.04 0.23 0.4 0.37 0.38 0.35 0.27 0.58 0.25 0.17 0.55 0.25 0.2 0.53 0.32 0.15 0.73 0.25 0.02 0.35 0.53 0.12 0.65 0.24 0.11 0.3 0.4 0.3 0.6 0.24 0.16 0.68 0.24 0.08 0.19 0.18 0.63 0.25 0.4 0.35 0.35 0.3 0.35 0.35 0.3 0.35 0.35 0.35 0.3 0.65 0.3 0.05 0.22 0.58 0.2 0.45 0.35 0.2 0.25 0.34 0.41 0.48 0.26 0.26 0.58 0.25 0.17 0.35 0.4 0.25 0.35 0.4 0.25 0.55 0.3 0.15 0.55 0.27 0.18 0.5 0.35 0.15 0.65 0.33 0.02 0.38 0.5 0.12 0.7 0.24 0.06 0.65 0.2 0.15 0.67 0.23 0.1 0.7 0.25 0.05 0.18 0.45 0.37 0.3 0.35 0.35 0.45 0.3 0.25 0.45 0.3 0.25 0.35 0.43 0.22 0.62 0.35 0.03 0.2 0.65 0.15 0.52 0.33 0.15 0.23 0.42 0.35 0.47 0.3 0.23 0.55 0.3 0.15 0.15 0.2 0.65 0.18 0.4 0.42 0.25 0.35 0.4 0.25 0.35 0.4 0.25 0.42 0.33 0.58 0.36 0.06 0.13 0.62 0.25 0.3 0.45 0.25 0.22 0.35 0.43 0.35 0.32 0.33 0.5 0.3 0.2 0.75 0.2 0.05 0.75 0.2 0.05 0.95 0.04 0.01 0.93 0.04 0.03 0.92 0.06 0.02 0.87 0.13 0.0 0.9 0.06 0.04 0.98 0.02 0.0 0.92 0.06 0.02 0.95 0.04 0.01 0.97 0.02 0.01 0.5 0.2 0.3 0.6 0.25 0.15 0.85 0.1 0.05 0.85 0.07 0.08 0.75 0.15 0.1 0.85 0.14 0.01 0.75 0.2 0.05 0.94 0.05 0.01 0.65 0.22 0.13 0.83 0.1 0.07 0.93 0.06 0.01 0.4 0.08 0.52 0.45 0.25 0.3 0.75 0.1 0.15 0.65 0.15 0.2 0.52 0.25 0.23 0.82 0.16 0.02 0.65 0.27 0.08 0.85 0.09 0.06 0.5 0.2 0.3 0.77 0.1 0.13 0.9 0.07 0.03 0.6 0.3 0.1 0.65 0.28 0.07 0.9 0.08 0.02 0.85 0.1 0.05 0.82 0.13 0.05 0.8 0.19 0.01 0.8 0.13 0.07 0.91 0.08 0.01 0.85 0.12 0.03 0.9 0.08 0.02 0.93 0.06 0.01 0.4 0.28 0.32 0.5 0.25 0.25 0.72 0.18 0.1 0.65 0.2 0.15 0.55 0.3 0.15 0.78 0.2 0.02 0.55 0.35 0.1 0.85 0.12 0.03 0.45 0.3 0.25 0.73 0.15 0.12 0.85 0.12 0.03 0.27 0.1 0.63 0.35 0.3 0.35 0.55 0.22 0.23 0.45 0.25 0.3 0.42 0.3 0.28 0.74 0.22 0.04 0.45 0.4 0.15 0.77 0.13 0.1 0.3 0.25 0.45 0.68 0.15 0.17 0.75 0.15 0.1 0.35 0.4 0.25 0.45 0.4 0.15 0.75 0.19 0.06 0.7 0.2 0.1 0.6 0.3 0.1 0.72 0.27 0.01 0.6 0.3 0.1 0.8 0.16 0.04 0.75 0.17 0.08 0.75 0.2 0.05 0.88 0.1 0.02 0.3 0.34 0.36 0.35 0.35 0.3 0.55 0.25 0.2 0.5 0.27 0.23 0.4 0.38 0.22 0.7 0.28 0.02 0.35 0.5 0.15 0.6 0.25 0.15 0.35 0.35 0.3 0.62 0.22 0.16 0.7 0.22 0.08 0.15 0.16 0.69 0.25 0.3 0.45 0.4 0.3 0.3 0.3 0.3 0.4 0.25 0.4 0.35 0.6 0.34 0.06 0.18 0.62 0.2 0.47 0.3 0.23 0.25 0.3 0.45 0.5 0.22 0.28 0.5 0.27 0.23 0.2 0.45 0.35 0.3 0.45 0.25 0.55 0.3 0.15 0.5 0.3 0.2 0.45 0.38 0.17 0.6 0.38 0.02 0.28 0.57 0.15 0.65 0.28 0.07 0.63 0.25 0.12 0.62 0.28 0.1 0.8 0.17 0.03 0.23 0.4 0.37 0.25 0.4 0.35 0.4 0.3 0.3 0.4 0.3 0.3 0.3 0.45 0.25 0.57 0.4 0.03 0.15 0.65 0.2 0.5 0.33 0.17 0.25 0.36 0.39 0.5 0.28 0.22 0.55 0.3 0.15 0.1 0.2 0.7 0.2 0.3 0.5 0.2 0.4 0.4 0.23 0.3 0.47 0.15 0.45 0.4 0.5 0.42 0.08 0.1 0.65 0.25 0.28 0.4 0.32 0.2 0.32 0.48 0.3 0.28 0.42 0.38 0.32 0.3
4
0.15 0.15 0.5 0.2
27
1.0 0.0 0.0 0.0 1.0 0.0 0.0 0.0 1.0 0.0 1.0 0.0 0.0 1.0 0.0 0.0 0.0 1.0 0.0 0.0 1.0 0.0 0.0 1.0 0.0 0.0 1.0
33
0.05 0.5 0.45 0.1 0.5 0.4 0.4 0.15 0.45 0.2 0.45 0.35 0.8 0.05 0.15 0.0 0.0 1.0 0.6 0.0 0.4 0.0 0.7 0.3 0.1 0.7 0.2 0.4 0.4 0.2 0.15 0.45 0.4
4
0.15 0.2 0.4 0.25
4
0.15 0.2 0.4 0.25
55
1.0 0.0 0.0 0.0 0.0 0.0 1.0 0.0 0.0 0.0 1.0 0.0 0.0 0.0 0.0 0.0 0.0 1.0 0.0 0.0 1.0 0.0 0.0 0.0 0.0 1.0 0.0 0.0 0.0 0.0 0.0 0.0 0.0 1.0 0.0 0.0 0.0 0.0 0.0 1.0 0.0 0.0 0.0 0.0 1.0 0.0 0.0 0.0 1.0 0.0 1.0 0.0 0.0 0.0 0.0
22
1.0 0.0 1.0 0.0 0.0 1.0 0.0 1.0 0.0 1.0 0.0 1.0 0.0 1.0 0.0 1.0 0.0 1.0 0.0 1.0 0.0 1.0
66
1.0 0.0 0.0 0.0 0.0 0.0 1.0 0.0 0.0 0.0 0.0 0.0 0.0 1.0 0.0 0.0 0.0 0.0 0.0 1.0 0.0 0.0 0.0 0.0 0.0 1.0 0.0 0.0 0.0 0.0 0.0 0.0 1.0 0.0 0.0 0.0 0.0 0.0 0.0 1.0 0.0 0.0 0.0 0.0 0.0 0.0 1.0 0.0 1.0 0.0 0.0 0.0 0.0 0.0 0.0 1.0 0.0 0.0 0.0 0.0 0.0 0.0 0.0 0.0 0.0 1.0
66
0.1 0.16 0.1 0.08 0.08 0.01 0.08 0.1 0.09 0.03 0.17 0.05 0.16 0.09 0.09 0.12 0.02 0.13 0.06 0.07 0.11 0.1 0.04 0.13 0.1 0.08 0.15 0.03 0.14 0.04 0.06 0.15 0.08 0.04 0.13 0.09 0.07 0.2 0.08 0.06 0.05 0.07 0.13 0.08 0.04 0.11 0.1 0.07 0.17 0.05 0.1 0.05 0.07 0.14 0.1 0.05 0.11 0.1 0.08 0.11 0.02 0.11 0.06 0.08 0.11 0.17
121
1.0 0.0 0.0 0.0 0.0 0.0 0.0 0.0 0.0 0.0 0.0 0.0 1.0 0.0 0.0 0.0 0.0 0.0 0.0 0.0 0.0 0.0 0.0 0.0 1.0 0.0 0.0 0.0 0.0 0.0 0.0 0.0 0.0 0.0 0.0 0.0 1.0 0.0 0.0 0.0 0.0 0.0 0.0 0.0 0.0 0.0 0.0 0.0 1.0 0.0 0.0 0.0 0.0 0.0 0.0 0.0 0.0 0.0 0.0 0.0 1.0 0.0 0.0 0.0 0.0 0.0 0.0 0.0 0.0 0.0 0.0 0.0 1.0 0.0 0.0 0.0 0.0 0.0 0.0 0.0 0.0 0.0 0.0 0.0 1.0 0.0 0.0 0.0 0.0 0.0 0.0 0.0 0.0 0.0 0.0 0.0 1.0 0.0 0.0 0.0 0.0 0.0 0.0 0.0 0.0 0.0 0.0 0.0 1.0 0.0 0.0 0.0 0.0 0.0 0.0 0.0 0.0 0.0 0.0 0.0 1.0
77
0.65 0.05 0.1 0.08 0.04 0.07 0.01 0.65 0.05 0.1 0.1 0.02 0.07 0.01 0.0 0.65 0.2 0.02 0.06 0.05 0.02 0.12 0.02 0.02 0.02 0.45 0.27 0.1 0.06 0.14 0.04 0.04 0.25 0.4 0.07 0.1 0.1 0.1 0.02 0.0 0.56 0.12 0.02 0.05 0.05 0.0 0.35 0.33 0.2 0.01 0.1 0.15 0.4 0.0 0.23 0.11 0.02 0.1 0.5 0.3 0.01 0.02 0.05 0.06 0.08 0.04 0.02 0.6 0.14 0.06 0.05 0.13 0.05 0.39 0.13 0.15 0.1
4
0.15 0.15 0.5 0.2
55
0.35 0.25 0.0 0.35 0.05 0.06 0.1 0.06 0.3 0.48 0.1 0.27 0.4 0.08 0.15 0.35 0.2 0.1 0.25 0.1 0.15 0.15 0.1 0.15 0.45 0.15 0.1 0.05 0.15 0.55 0.15 0.1 0.1 0.25 0.4 0.25 0.25 0.25 0.15 0.1 0.25 0.2 0.15 0.2 0.2 0.01 0.05 0.01 0.05 0.88 0.2 0.2 0.35 0.15 0.1
44
0.13 0.15 0.1 0.62 0.15 0.15 0.25 0.45 0.12 0.1 0.35 0.43 0.1 0.15 0.4 0.35 0.04 0.04 0.82 0.1 0.05 0.12 0.75 0.08 0.03 0.03 0.84 0.1 0.05 0.4 0.5 0.05 0.8 0.19 0.0 0.01 0.1 0.05 0.4 0.45 0.2 0.3 0.3 0.2
3
0.1 0.5 0.4
44
0.0 0.95 0.01 0.04 0.2 0.3 0.2 0.3 0.05 0.09 0.59 0.27 0.03 0.32 0.42 0.23 0.07 0.66 0.02 0.25 0.5 0.0 0.0 0.5 0.25 0.3 0.25 0.2 0.2 0.14 0.43 0.23 0.2 0.41 0.1 0.29 0.96 0.0 0.0 0.04 0.03 0.08 0.33 0.56
22
0.8 0.2 0.35 0.65 0.75 0.25 0.7 0.3 0.65 0.35 0.15 0.85 0.7 0.3 0.3 0.7 0.5 0.5 0.01 0.99 0.7 0.3
66
0.05 0.6 0.02 0.1 0.23 0.0 0.08 0.6 0.02 0.1 0.2 0.0 0.1 0.0 0.75 0.0 0.0 0.15 0.1 0.15 0.2 0.05 0.3 0.2 0.43 0.1 0.15 0.06 0.06 0.2 0.6 0.07 0.01 0.12 0.2 0.0 0.25 0.01 0.3 0.01 0.03 0.4 0.04 0.02 0.04 0.8 0.1 0.0 0.2 0.3 0.05 0.37 0.07 0.01 0.6 0.08 0.07 0.03 0.2 0.02 0.1 0.05 0.1 0.05 0.2 0.5
4
0.3 0.25 0.25 0.2